W=5;
H=5;

MAX_TIME=14;
MAX_TRACKS=7;

TARGET=(3,5);

TRAINS=[(3,1,TOP)];

INIT_POS=[
(3,1,STRAIGHT_TD),
(3,2,CORNER_DR),
(3,3,CORNER_DL),
(3,4,DSWITCH_T_D_R),
(3,5,STRAIGHT_RL),
];
TUNNEL_PAIRS=[];

GATES=[];
ACTIVATIONS=[
(3,2,1),
(3,3,1),
];

DSWITCHES=[
(3,4,1),
];
STATIONS=[];
